COMMENT: Europe-Subproblem of 666-city TSP (Groetschel)
37.44 38.43 41.11 37.23 36.32 36.43 37.13 37.53 38.21 39.28 41.23 41.38 40.24 41.39 43.15 43.22 38.54 39.34 42.3 44.5 43.36 43.18 43.42 43.42 42.42 45.5 45.26 45.45 45.1 48.24 48.05 47.13 47.23 49.3 48.52 49.15 47.19 48.41 48.35 49.36 50.38 50.5 50.38 51.03 51.13 51.26 51.55 52.22 52.05 53.13 50.23 50.43 50.5 51.29 51.27 51.3 52.3 53.25 53.3 53.23 53.5 54.59 55.57 55.53 56.28 57.1 60.09 62.01 51.54 52.4 53.2 54.35 55 64.09 64.11 76.34 70.4 68.26 65.01 61.3 60.27 60.1 63.25 60.23 58.58 59.55 57.43 55.36 58.25 59.2 57.38 56.09 55.24 55.4 53.04 53.33 54.2 54.05 51.57 52.24 52.07 52.31 50.47 50.44 50.56 51.12 51.17 51.28 51.28 51.32 51.31 51.19 50.58 51.29 51.19 50.5 51.03 49.14 50.07 49.25 49.48 49.27 49.03 48.46 49.01 48.08 46.12 46.31 46.57 47.33 47.23 47.16 47.48 48.18 48.13 47.05 45.03 45.28 45.27 45.27 45.4 44.25 44.29 43.46 43.55 39.2 41.54 40.51 41.27 41.07 40.28 38.11 37.3 38.07 35.54 53.24 54.23 53.08 52.25 51.46 52.15 53.09 51.06 50.16 50.03 51.15 49.45 50.05 49.5 49.12 48.09 48.43 47.3 47.32 46.05 46.15 45.45 46.47 47.1 45.48 45.39 44.26 44.11 46.03 45.2 45.48 43.31 43.52 44.5 42.38 41.59 41.2 42.41 42.09 43.13 42.3 39.36 40.38 38.15 37.58 35.2 35.1
-25.4 -9.08 -8.36 -5.59 -6.18 -4.25 -3.41 -4.46 -0.29 -0.22 2.11 -0.53 -3.41 -4.43 -2.58 -8.23 1.26 2.39 1.31 -0.34 1.26 5.24 7.15 7.23 9.27 1.16 4.24 4.51 5.43 -4.29 -1.41 -1.33 0.41 0.08 2.2 4.02 5.01 6.12 7.45 6.09 5.34 4.2 3.04 3.43 4.25 5.28 4.28 4.54 5.08 6.33 -4.1 -1.54 -0.08 -3.13 -2.35 -0.1 -1.5 -2.55 -2.15 -1.3 -1.35 -1.35 -3.13 -4.15 -3 -2.04 -1.09 -6.46 -8.28 -8.38 -6.15 -5.55 -7.19 -21.51 -51.44 -68.47 23.42 17.25 25.28 23.45 22.17 24.58 10.25 5.2 5.45 10.45 11.58 13 15.37 18.03 18.18 10.13 10.23 12.35 8.49 9.59 10.08 12.07 7.37 9.44 11.38 13.24 6.05 7.05 6.59 6.47 7.17 7.01 7.13 7.13 7.28 9.29 11.01 11.58 12.2 12.55 13.44 6.59 8.4 8.43 9.56 11.04 8.24 9.11 12.06 11.34 6.09 6.38 7.26 7.35 8.32 11.24 13.02 14.18 16.2 15.27 7.4 9.12 11 12.21 13.46 8.57 11.2 11.15 12.28 9 12.29 14.17 15.34 16.52 17.15 15.33 15.06 13.21 14.31 14.32 18.4 18 16.55 19.3 21 23.09 17 19 19.58 22.35 13.23 14.26 18.17 16.37 17.07 21.15 19.05 21.38 18.13 20.09 21.13 23.36 27.35 24.09 25.37 26.06 28.39 14.31 14.27 15.58 16.27 18.25 20.3 18.07 21.26 19.5 23.19 24.45 27.55 27.28 19.56 22.56 21.44 23.43 25.09 33.22
2867.72 2803 2756.66 2756.66 2696.88 2612.57 2583.83 2550.82 2494.04 2474.1 2456.49 2407.89 2404.09 2398.53 2385.29 2332.89 2328.21 2328.21 2328.21 2286.98 2233.24 2186.25 2186.25 2186.25 2184.85 2130.76 2130.76 2130.76 2130.76 2108.62 2105.86 2100.82 2089.37 2076.66 2068.61 2060.74 2022.74 2004.13 1999.22 1986.9 1967.44 1963.9 1963.9 1956.44 1954.52 1944.73 1930.53 1926.09 1907.31 1907.31 1879.41 1879.41 1862.29 1862.29 1857.33 1835.75 1827.09 1827.09 1813.59 1813.59 1804.32 1803.1 1803.1 1803.1 1803.1 1803.1 1803.1 1798.25 1798.25 1790.73 1790.73 1790.18 1777.87 1777.87 1774.85 1770.38 1763.74 1763.74 1763.74 1763.74 1763.74 1763.74 1763.74 1763.74 1763.74 1763.74 1763.74 1763.74 1763.74 1763.74 1762 1761.38 1758.01 1748.32 1747.23 1738.29 1719.47 1719.47 1711.76 1711.76 1711.76 1711.76 1711.76 1711.76 1680.29 1674.2 1674.2 1674.2 1674.2 1674.2 1674.2 1674.2 1674.2 1669.16 1669.16 1669.16 1669.16 1669.16 1669.16 1669.16 1659.24 1659.24 1659.24 1659.24 1648.18 1648.18 1648.18 1642.68 1641.9 1632.32 1632.32 1620.87 1615.3 1607.26 1607.26 1607.26 1607.26 1607.26 1607.26 1607.26 1584.92 1584.55 1578.36 1574.09 1574.09 1574.09 1574.09 1574.09 1545.09 1545.09 1545.09 1545.09 1545.09 1545.09 1527.16 1527.16 1525.21 1525.21 1525.21 1525.21 1521.56 1521.56 1521.56 1515.15 1511.19 1511.19 1511.19 1511.19 1511.19 1511.19 1502.17 1500.67 1500.67 1496.81 1496.81 1496.81 1496.81 1485.7 1465.61 1453.16 1453.16 1453.16 1453.16 1453.16 1453.16 1453.16 1453.16 1453.16 1453.16 1447.58 1442.67 1438.59 1427.16 1425.83 1425.83 1425.83 1419.6 1419.6 1419.6 1419.6 1408.57 1408.5 1392.29 1385.44 1385.44 1385.44 1382.18 1382.18 1377.07 1377.07 1373.86 1359.8 1359.8 1351.68 1351.68 1351.68 1351.68 1351.68 1346.8 1343.97 1339.5 1339.5 1339.5 1339.5 1339.5 1339.5 1339.5 1339.5 1339.5 1339.5 1339.5 1336.21 1333.16 1332.15 1330.11 1325.85 1312.3 1312.3 1311 1299.96 1299.96 1299.96 1299.96 1299.96 1299.96 1296.49 1292.81 1286.43 1285.11 1285.11 1285.11 1285.11 1285.11 1285.11 1285.11 1285.11 1285.11 1275.51 1275.51 1275.51 1274.69 1267.49 1267.49 1267.49 1263.83 1263.83 1263.83 1263.83 1253.26 1253.26 1243.27 1243.27 1239.93 1229.52 1229.52 1229.52 1229.52 1229.52 1227.14 1225.95 1220.12 1216.69 1216.69 1216.69 1216.69 1216.69 1216.69 1216.69 1216.69 1216.69 1216.69 1216.69 1214.16 1210.51 1210.51 1210.51 1210.51 1210.51 1210.51 1210.51 1210.51 1210.51 1210.51 1210.51 1210.51 1210.51 1210.51 1204.86 1204.86 1204.86 1202.75 1202.75 1200.34 1195.64 1195.64 1195.64 1189.48 1189.48 1189.48 1186.74 1185.79 1184.36 1180.19 1178.55 1178.55 1178.55 1178.55 1178.55 1178.55 1178.55 1178.55 1168.01 1168.01 1168.01 1167.73 1167.73 1167.21 1167.21 1167.21 1167.21 1167.21 1167.21 1166.68 1160.48 1160.48 1160.48 1160.48 1160.48 1159.87 1159.87 1159.87 1159.87 1159.87 1159.87 1159.87 1159.87 1159.87 1158.29 1143.23 1143.23 1140.02 1140.02 1140.02 1140.02 1138.78 1138.78 1138.78 1138.78 1138.78 1138.78 1138.78 1136.79 1136.79 1136.79 1134.83 1134.14 1129.12 1129.12 1129.12 1129.12 1129.12 1129.12 1129.12 1123.14 1123.14 1123.14 1123.14 1123.14 1123.14 1121.34 1121.34 1121.34 1119.9 1119.9 1118.37 1118.37 1118.37 1118.37 1118.37 1116.2 1116.2 1116.2 1114.92 1111.45 1111.45 1111.45 1110.53 1110.53 1110.53 1110.53 1110.53 1110.53 1110.53 1110.53 1110.53 1110.53 1110.53 1102.61 1102.61 1102.61 1102.61 1095.07 1095.07 1095.07 1095.07 1095.07 1095.07 1095.07 1095.07 1095.07 1095.07 1095.07 1095.07 1095.07 1095.07 1095.07 1095.07 1095.07 1095.07 1082.58 1082.58 1082.58 1082.58 1082.58 1082.58 1082.58 1082.58 1082.58 1082.58 1082.58 1082.58 1082.3 1082.3 1082.3 1082.3 1082.3 1080.69 1080.69 1080.69 1080.69 1080.69 1080.69 1080.69 1080.69 1080.54 1074.87 1074.87 1074.87 1074.87 1074.87 1072.26 1072.26 1072.26 1072.26 1072.26 1072.26 1072.26 1072.26 1072.26 1072.26 1072.26 1069.02 1069.02 1063.59 1063.59 1063.59 1062.78 1062.78 1062.78 1062.78 1061.66 1061.66 1061.66 1056.66 1056.66 1056.66 1056.66 1056.66 1056.66 1052.5 1052.5 1052.5 1052.5 1052.5 1052.5 1052.5 1052.5 1052.01 1052.01 1052.01 1052.01 1052.01 1052.01 1052.01 1051.28 1051.28 1051.28 1051.28 1051.28 1051.28 1051.28 1051.28 1051.28 1051.28 1051.28 1049.93 1049.93 1049.93 1049.93 1049.93 1049.93 1049.93 1049.63 1049.63 1049.63 1049.63 1048.36 1048.36 1048.36 1048.36 1048.36 1038.78 1038.78 1038.78 1038.78 1038.78 1038.78 1036.81 1036.81 1031.98 1031.98 1031.98 1031.98 1031.98 1031.98 1031.54 1031.54 1030.41 1024.09 1024.09 1023.79 1023.79 1023.79 1023.79 1023.79 1023.79 1023.79 1023.79 1023.79 1023.79 1023.79 1023.79 1023.79 1023.79 1018.97 1018.97 1018.97 1018.97 1018.97 1017.08 1017.08 1017.08 1017.08 1017.08 1017.08 1017.08 1017.08 1017.08 1017.08 1015.19 1015.19 1015.19 1015.19 1015.19 1015.19 1014.47 1014.47 1014.47 1014.47 1014.47 1014.47 1014.47 1014.47 1014.47 1014.47 1014.47 1003.03 1003.03 1003.03 1003.03 1003.03 1003.03 1003.03 1001.45 1001.45 1001.45 1001.45 1001.45 1001.45 1001.45 1001.45 1001.45 1001.45 1001.45 988.971 988.971 988.971 987.867 987.867 987.867 987.867 987.867 987.867 987.867 987.867 987.867 987.867 987.867 987.867 987.867 987.867 987.867 987.867 987.867 987.867 987.867 979.509 977.206 977.206 977.206 977.206 977.206 977.206 977.206 977.206 977.206 977.206 977.206 977.206 977.206 977.206 977.206 975.518 975.518 975.518 975.518 975.518 975.518 975.518 975.518 975.518 975.518 975.518 975.518 972.261 967.276 961.397 961.397 961.397 961.397 961.397 961.397 961.397 961.397 961.397 961.397 961.397 961.397 961.397 961.397 961.397 961.397 958.944 958.944 958.944 958.944 957.244 957.244 957.244 952.539 948.511 948.511 948.511 948.511 944.306 944.306 944.306 944.306 944.306 944.306 944.306 943.846 943.846 943.846 943.846 943.846 943.846 943.846 943.846 943.846 943.846 943.846 943.846 943.846 943.846 943.846 943.846 943.846 943.846 936.729 936.729 936.642 936.642 936.642 936.642 936.642 936.642 936.642 936.642 936.642 936.642 936.642 936.642 936.642 936.642 936.642 936.642 936.642 936.642 936.642 936.642 936.642 936.642 936.642 936.642 936.642 936.642 936.134 936.134 936.134 936.134 936.134 936.134 936.134 936.134 936.134 936.134 936.134 936.134 936.134 936.134 936.134 936.134 936.134 930.965 930.965 930.965 930.965 930.965 930.965 930.965 928.375 928.375 926.755 926.755 926.755 926.755 926.755 926.755 926.755 926.755 926.755 926.755 926.755 926.755 926.755 926.755 926.755 926.755 926.755 926.755 926.755 926.755 926.755 926.755 926.755 926.755 926.755 926.755 926.755 926.755 926.755 926.755 926.755 926.755 926.755 926.755 926.755 926.755 926.755 926.755 926.755 926.755 926.755 926.755 926.755 926.755 926.755 926.755 926.755 926.755 926.755 926.755 926.755 926.755 926.755 926.755 926.755 926.755 926.755 926.755 926.755 926.755 926.755 926.755 926.755 926.755 926.755 926.755 926.755 926.755 926.755 926.755 926.755 926.755 926.755 926.755 926.755 926.755 926.755 926.755 926.755 926.755 926.755 926.755 926.755 926.755 926.755 926.755 926.755 926.755 926.755 926.755 926.755 926.755 926.755 926.755 926.755 926.755 926.755 926.755 926.755 926.755 926.755 926.755 926.755 926.755 926.755 926.755 926.755 926.755 926.755 926.755 926.755 926.755 926.755 926.755 926.755 926.755 926.755 926.755 917.38 917.38 917.38 917.38 917.38 917.38 917.38 917.38 917.38 917.38 917.38 917.38 917.38 917.38 917.38 917.38 914.216 914.216 914.216 914.216 914.216 914.216 914.216 914.216 914.216 910.744 905.628 905.628 905.628 905.628 905.628 901.693 901.372 901.372 901.372 901.372 901.372 901.372 901.372 901.372 901.372 901.372 901.372 901.372 901.372 901.372 901.372 901.372 901.372 901.372 901.372 901.372 901.372 901.372 901.372 901.372 901.372 901.372 901.372 899.383 899.383 899.383 899.383 899.383 899.383 899.383 899.383 899.383 899.383 899.383 899.383 899.383 899.383 899.383 892.312 892.312 892.312 892.312 892.312 892.312 892.138 892.138 892.138 884.731 884.731 884.731 884.731 884.731 884.731 884.731 884.731 884.731 884.731 884.731 884.731 884.731 884.731 884.731 884.731 884.731 884.731 884.731 884.731 884.731 883.043 883.043 883.043 883.043 883.043 883.043 883.043 883.043 883.043 883.043 883.043 883.043 883.043 883.043 883.043 883.043 883.043 883.043 883.043 883.043 883.043 883.043 883.043 883.043 883.043 883.043 883.043 883.043 883.043 883.043 883.043 883.043 883.043 883.043 883.043 883.043 883.043 883.043 883.043 883.043 883.043 883.043 883.043 883.043 883.043 883.043 883.043 883.043 883.043 883.043 883.043 883.043 883.043 883.043 883.043 883.043 883.043 883.043 883.043 883.043 883.043 883.043 883.043 883.043 883.043 883.043 883.043 883.043 883.043 883.043 883.043 883.043 883.043 883.043 883.043 883.043 883.043 883.043 883.043 883.043 883.043 883.043 883.043 883.043 883.043 883.043 883.043 883.043 883.043 883.043 883.043 883.043 883.043 883.043 883.043 883.043 883.043 883.043 882.828 882.828 882.828 879.752 879.752 879.752 879.752 879.752 879.752 879.752 879.752 879.752 879.752 879.752 879.752 879.752 879.752 879.752 879.752 873.652 873.652 873.652 873.652 873.652 864.28 864.28 864.28 864.28 864.28 864.28 864.28 864.28 864.28 864.28 864.28 864.28 864.28 864.28 864.28 864.28 864.28 864.28 864.28 864.28 864.28 864.28 864.28 864.28 864.28 864.28 864.28 864.28 864.28 864.28 864.28 864.28 864.28 864.28 864.28 864.28 864.28 864.28 864.28 864.28 864.28 864.28 864.28 864.28 864.28 864.28 864.28 864.28 864.28 864.28 864.28 864.28 864.28 864.28 864.28 864.28 864.28 864.28 864.28 864.28 864.28 864.28 864.28 864.28 864.28 864.28 864.28 864.28 864.28 864.28 864.28 864.28 864.28 864.28 864.28 864.28 864.28 864.28 864.28 864.28 864.28 864.28 864.28 864.28 864.28 864.28 864.28 864.28 864.28 864.28 864.28 864.28 864.28 864.28 864.28 864.28 864.28 864.28 864.28 864.28 864.28 864.28 864.28 864.28 864.28 864.28 864.28 864.28 864.28 864.28 864.28 864.28 864.28 864.28 864.28 864.28 864.28 864.28 864.28 864.28 864.28 864.28 864.28 864.28 864.28 864.28 864.28 864.28 864.28 864.28 864.28 864.28 864.28 864.28 864.28 864.28 864.28 864.28 864.28 864.28 864.28 864.28 864.28 864.28 864.28 864.28 864.28 864.28 864.28 864.28 864.28 864.28 864.28 864.28 864.28 864.28 864.28 864.28 864.28 864.28 864.28 864.28 864.28 864.28 864.28 864.28 864.28 864.28 864.28 864.28 864.28 864.28 864.28 864.28 864.28 864.28 864.28 864.28 864.28 864.28 864.28 864.28 864.28 864.28 864.28 864.28 864.28 864.28 864.28 864.28 864.28 864.28 864.28 864.28 864.28 864.28 864.28 864.28 864.28 864.28 864.28 864.28 864.28 864.28 864.28 864.28 864.28 864.28 864.28 864.28 864.28 858.958 858.958 858.958 858.958 858.958 858.958 858.958 858.958 858.958 858.958 858.958 858.958 858.958 858.958 858.958 856.87 856.87 856.87 856.87 856.87 856.87 856.87 856.87 856.87 856.87 856.87 856.87 856.87 856.87 856.87 856.87 856.87 856.87 856.87 856.87 856.87 856.87 856.87 856.87 856.87 856.87 856.436 855.358 855.358 855.358 855.358 855.358 855.358 853.91 853.289 853.289 853.289 853.289 853.289 853.289 853.289 853.289 853.289 853.289 853.289 853.289 853.289 853.289 853.289 853.289 853.289 853.289 853.289 853.289 851.905 851.905 851.905 850.046 850.046 850.046 850.046 839.695 839.695 839.695 839.695 835.957 835.468 835.468 835.468 835.468 831.166 831.166 831.166 831.166 831.166 831.166 831.166 831.166 831.166 831.166 831.166 831.166 830.709 830.709 830.709 830.709 830.709 830.709 830.709 830.709 828.802 828.227 828.227 826.141 825.994 825.994 825.994 825.994 825.994 825.994 825.994 825.426 825.426 825.426 825.426 825.426 825.426 825.426 825.426 825.426 825.426 825.426 825.426 825.426 825.426 825.426 825.426 825.426 825.426 825.426 825.426 825.426 824.674 824.674 824.674 824.674 824.674 824.674 824.674 823.034 820.354 820.354 820.354 820.354 820.354 820.354 820.354 820.354 820.354 820.354 820.354 820.354 820.354 820.354 820.354 820.354 820.354 820.354 820.354 820.354 820.354 820.354 820.354 820.354 820.354 820.354 820.354 820.354 820.354 820.354 820.354 820.354 820.354 820.354 820.354 820.354 820.354 820.354 820.354 820.354 818.945 818.945 818.945 818.945 818.945 818.945 818.945 818.945 817.96 817.245 817.245 817.245 816.209 811.835 811.766 811.766 811.766 811.766 811.766 811.766 811.766 811.766 811.766 811.766 811.766 811.766 811.766 811.766 808.113 808.113 808.113 808.113 808.113 808.113 808.113 808.113 808.113 808.113 808.113 808.113 808.113 798.361 798.361 798.361 798.361 798.361 798.361 798.361 798.361 798.361 798.361 798.361 798.361 798.361 798.361 795.559 795.559 795.559 795.559 795.559 794.954 794.954 794.954 794.954 793.282 789.874 789.874 789.874 789.874 789.874 789.138 789.138 789.138 789.138 789.138 789.138 789.138 789.138 787.76 787.57 787.57 787.57 787.57 787.57 787.57 787.57 787.57 787.57 787.57 787.57 787.57 785.971 785.971 783.266 783.266 781.859 781.859 781.859 781.859 781.859 781.859 781.859 781.859 781.859 781.859 781.859 781.859 781.859 781.859 781.859 781.859 781.859 781.859 781.859 781.859 781.859 781.859 781.859 781.859 781.859 781.859 781.859 781.859 781.859 781.859 781.859 781.859 779.703 778.967 778.967 778.967 778.967 778.967 778.967 778.967 778.967 778.967 778.967 778.967 778.967 778.967 778.967 778.967 778.967 778.967 778.967 778.967 778.967 778.967 778.967 778.967 778.967 778.322 778.322 777.887 777.887 777.887 777.887 777.887 775.744 775.744 775.744 775.744 773.754 773.754 773.754 773.754 770.375 770.295 770.295 770.295 770.295 770.295 770.295 770.295 770.295 770.295 770.295 770.295 770.151 770.151 770.151 770.151 770.151 770.151 770.151 770.151 770.151 765.606 765.606 765.606 765.606 765.606 765.606 765.606 765.606 765.606 764.81 764.81 764.81 764.666 764.666 764.666 763.329 763.329 763.329 763.329 763.329 763.329 763.329 763.329 763.329 763.329 763.329 763.329 763.329 763.329 763.329 763.329 763.329 763.329 763.329 763.329 763.329 763.329 763.329 763.329 763.329 763.329 763.329 763.329 763.329 763.329 763.329 763.329 763.329 763.329 763.329 763.329 763.329 763.329 763.329 763.329 763.329 763.329 763.329 763.329 763.329 763.329 763.329 763.329 763.329 763.329 763.329 763.329 763.329 763.329 763.329 763.329 763.329 763.329 763.329 763.329 763.329 763.329 763.329 763.329 763.329 763.329 763.329 763.329 763.329 763.329 763.329 763.329 763.329 763.329 763.329 763.329 763.329 763.329 763.329 763.329 763.329 763.329 763.329 763.329 763.329 763.329 763.329 763.329 763.329 763.329 763.329 763.329 763.329 763.329 763.329 761.944 760.335 757.927 757.927 757.927 757.927 757.927 757.927 757.927 757.927 757.927 757.927 757.927 754.756 754.756 754.756 754.756 754.756 754.756 754.756 754.756 754.756 754.756 754.756 754.756 754.756 754.756 754.756 754.756 754.756 754.756 754.756 754.756 754.756 754.756 754.756 754.756 754.756 754.756 754.756 754.756 754.756 754.756 754.756 754.756 754.756 754.756 754.756 754.756 754.756 754.756 754.756 754.756 754.756 754.756 754.756 754.756 754.756 754.756 754.756 754.756 754.756 754.756 754.756 754.756 754.756 754.756 754.756 754.756 754.756 754.756 754.756 754.756 754.756 754.756 754.756 754.756 754.756 754.756 754.756 754.756 754.756 754.756 754.756 754.756 754.756 754.756 754.756 754.756 754.756 754.756 754.756 754.756 754.756 754.756 754.756 754.756 754.756 754.756 754.756 754.756 754.756 754.756 754.756 754.756 754.756 754.756 754.756 754.756 754.756 754.756 754.756 754.756 754.756 754.756 754.756 754.756 754.756 754.756 754.756 754.756 754.756 754.756 754.756 754.756 754.756 754.756 754.756 754.756 754.756 754.756 754.756 754.756 754.756 754.756 754.756 754.756 754.756 754.756 754.756 754.756 754.756 754.756 754.756 754.756 754.756 754.756 754.756 754.756 754.756 754.756 754.756 753.34 753.34 753.34 753.34 753.34 753.34 753.34 753.34 752.525 750.403 750.403 750.403 750.403 750.403 750.403 750.403 750.403 750.403 750.403 750.403 749.802 749.802 749.802 748.987 748.987 748.987 748.987
149 152 190 180 174 178 183 195 196 202 200 201 194 182 193 198 191 192 189 186 184 185 136 141 132 139 133 171 169 164 160 165 162 161 163 156 89 90 159 158 102 117 116 114 124 121 125 167 113 100 112 99 96 101 115 168 170 134 126 129 130 127 128 36 43 47 45 46 103 110 38 37 131 40 44 42 30 31 51 55 53 56 52 54 57 60 61 62 68 66 65 63 64 72 71 69 70 73 74 75 76 1 6 2 3 4 5 8 7 9 10 17 13 16 14 18 11 12 21 20 35 32 34 33 26 15 19 27 28 29 22 23 147 148 154 155 146 145 144 140 143 25 24 142 137 138 122 119 120 123 39 118 109 108 107 111 106 105 50 48 49 85 59 58 67 84 86 83 91 82 81 80 77 78 79 87 92 98 88 104 41 95 93 97 94 157 166 172 181 179 199 197 188 175 135 173 176 177 187 150 151 153
1 3 16 14 13 12 15 20 26 33 32 31 30 51 69 70 71 72 73 64 63 65 66 62 61 60 59 58 57 54 55 52 56 53 34 35 36 40 118 38 37 28 27 29 127 128 129 131 130 39 123 124 120 119 121 122 125 126 132 133 134 167 168 117 116 115 114 113 112 99 111 110 109 108 107 106 105 104 103 41 42 43 44 45 46 47 49 48 50 95 100 101 102 156 98 96 97 93 92 94 88 87 86 83 84 85 67 68 74 75 76 77 78 79 80 82 81 90 89 91 157 158 159 163 160 161 162 166 165 164 169 170 135 171 173 172 174 178 180 181 179 182 183 195 196 202 201 200 199 197 198 194 193 191 192 190 187 188 189 177 176 175 186 136 184 185 141 140 139 143 144 145 147 148 149 150 151 152 153 155 154 146 25 142 138 137 24 23 22 21 19 11 18 17 10 9 7 6 8 4 5 2
